DIMENSION: 6
EDGE_WEIGHT_TYPE: EXPLICIT
EDGE_WEIGHT_FORMAT: FULL_MATRIX
EDGE_WEIGHT_SECTION:
32767 14 32767 32767 32767 32767 
14 32767 32767 58 32767 32767 
32767 32767 32767 46 32767 32767 
32767 58 46 32767 89 9 
32767 32767 32767 89 32767 32767 
32767 32767 32767 9 32767 32767 
EOF